(set-logic ALL)
(declare-const O (Array Int Int))
(define-fun m () Int 200)

(assert (= (select O 0) 1))
(assert (= (select O 1) 2))
(assert (= (select O 2) 1))
(assert (= (select O 3) 1))
(assert (= (select O 4) 2))
(assert (= (select O 5) 1))
(assert (= (select O 6) 1))
(assert (= (select O 7) 1))
(assert (= (select O 8) 1))
(assert (= (select O 9) 2))
(assert (= (select O 10) 2))
(assert (= (select O 11) 2))
(assert (= (select O 12) 1))
(assert (= (select O 13) 2))
(assert (= (select O 14) 1))
(assert (= (select O 15) 2))
(assert (= (select O 16) 1))
(assert (= (select O 17) 1))
(assert (= (select O 18) 2))
(assert (= (select O 19) 1))
(assert (= (select O 20) 1))
(assert (= (select O 21) 1))
(assert (= (select O 22) 1))
(assert (= (select O 23) 1))
(assert (= (select O 24) 1))
(assert (= (select O 25) 1))
(assert (= (select O 26) 1))
(assert (= (select O 27) 1))
(assert (= (select O 28) 1))
(assert (= (select O 29) 2))
(assert (= (select O 30) 1))
(assert (= (select O 31) 1))
(assert (= (select O 32) 1))
(assert (= (select O 33) 1))
(assert (= (select O 34) 1))
(assert (= (select O 35) 2))
(assert (= (select O 36) 1))
(assert (= (select O 37) 2))
(assert (= (select O 38) 1))
(assert (= (select O 39) 1))
(assert (= (select O 40) 1))
(assert (= (select O 41) 1))
(assert (= (select O 42) 1))
(assert (= (select O 43) 1))
(assert (= (select O 44) 2))
(assert (= (select O 45) 1))
(assert (= (select O 46) 1))
(assert (= (select O 47) 1))
(assert (= (select O 48) 1))
(assert (= (select O 49) 1))
(assert (= (select O 50) 1))
(assert (= (select O 51) 1))
(assert (= (select O 52) 1))
(assert (= (select O 53) 1))
(assert (= (select O 54) 2))
(assert (= (select O 55) 1))
(assert (= (select O 56) 2))
(assert (= (select O 57) 1))
(assert (= (select O 58) 1))
(assert (= (select O 59) 2))
(assert (= (select O 60) 1))
(assert (= (select O 61) 1))
(assert (= (select O 62) 2))
(assert (= (select O 63) 2))
(assert (= (select O 64) 1))
(assert (= (select O 65) 1))
(assert (= (select O 66) 1))
(assert (= (select O 67) 1))
(assert (= (select O 68) 2))
(assert (= (select O 69) 1))
(assert (= (select O 70) 1))
(assert (= (select O 71) 1))
(assert (= (select O 72) 1))
(assert (= (select O 73) 1))
(assert (= (select O 74) 2))
(assert (= (select O 75) 1))
(assert (= (select O 76) 2))
(assert (= (select O 77) 1))
(assert (= (select O 78) 1))
(assert (= (select O 79) 1))
(assert (= (select O 80) 2))
(assert (= (select O 81) 1))
(assert (= (select O 82) 1))
(assert (= (select O 83) 1))
(assert (= (select O 84) 1))
(assert (= (select O 85) 1))
(assert (= (select O 86) 1))
(assert (= (select O 87) 2))
(assert (= (select O 88) 1))
(assert (= (select O 89) 2))
(assert (= (select O 90) 1))
(assert (= (select O 91) 1))
(assert (= (select O 92) 2))
(assert (= (select O 93) 1))
(assert (= (select O 94) 1))
(assert (= (select O 95) 2))
(assert (= (select O 96) 1))
(assert (= (select O 97) 1))
(assert (= (select O 98) 1))
(assert (= (select O 99) 1))
(assert (= (select O 100) 1))
(assert (= (select O 101) 1))
(assert (= (select O 102) 1))
(assert (= (select O 103) 1))
(assert (= (select O 104) 1))
(assert (= (select O 105) 2))
(assert (= (select O 106) 2))
(assert (= (select O 107) 1))
(assert (= (select O 108) 1))
(assert (= (select O 109) 1))
(assert (= (select O 110) 1))
(assert (= (select O 111) 1))
(assert (= (select O 112) 1))
(assert (= (select O 113) 2))
(assert (= (select O 114) 1))
(assert (= (select O 115) 1))
(assert (= (select O 116) 2))
(assert (= (select O 117) 1))
(assert (= (select O 118) 2))
(assert (= (select O 119) 1))
(assert (= (select O 120) 2))
(assert (= (select O 121) 1))
(assert (= (select O 122) 1))
(assert (= (select O 123) 1))
(assert (= (select O 124) 2))
(assert (= (select O 125) 1))
(assert (= (select O 126) 1))
(assert (= (select O 127) 2))
(assert (= (select O 128) 1))
(assert (= (select O 129) 2))
(assert (= (select O 130) 1))
(assert (= (select O 131) 2))
(assert (= (select O 132) 1))
(assert (= (select O 133) 1))
(assert (= (select O 134) 1))
(assert (= (select O 135) 1))
(assert (= (select O 136) 1))
(assert (= (select O 137) 2))
(assert (= (select O 138) 1))
(assert (= (select O 139) 1))
(assert (= (select O 140) 1))
(assert (= (select O 141) 1))
(assert (= (select O 142) 1))
(assert (= (select O 143) 2))
(assert (= (select O 144) 1))
(assert (= (select O 145) 1))
(assert (= (select O 146) 1))
(assert (= (select O 147) 1))
(assert (= (select O 148) 1))
(assert (= (select O 149) 1))
(assert (= (select O 150) 1))
(assert (= (select O 151) 1))
(assert (= (select O 152) 1))
(assert (= (select O 153) 1))
(assert (= (select O 154) 1))
(assert (= (select O 155) 2))
(assert (= (select O 156) 1))
(assert (= (select O 157) 1))
(assert (= (select O 158) 1))
(assert (= (select O 159) 1))
(assert (= (select O 160) 1))
(assert (= (select O 161) 1))
(assert (= (select O 162) 1))
(assert (= (select O 163) 1))
(assert (= (select O 164) 1))
(assert (= (select O 165) 1))
(assert (= (select O 166) 2))
(assert (= (select O 167) 1))
(assert (= (select O 168) 1))
(assert (= (select O 169) 2))
(assert (= (select O 170) 2))
(assert (= (select O 171) 1))
(assert (= (select O 172) 2))
(assert (= (select O 173) 1))
(assert (= (select O 174) 2))
(assert (= (select O 175) 2))
(assert (= (select O 176) 1))
(assert (= (select O 177) 1))
(assert (= (select O 178) 1))
(assert (= (select O 179) 1))
(assert (= (select O 180) 2))
(assert (= (select O 181) 2))
(assert (= (select O 182) 2))
(assert (= (select O 183) 1))
(assert (= (select O 184) 2))
(assert (= (select O 185) 1))
(assert (= (select O 186) 2))
(assert (= (select O 187) 1))
(assert (= (select O 188) 2))
(assert (= (select O 189) 1))
(assert (= (select O 190) 2))
(assert (= (select O 191) 2))
(assert (= (select O 192) 2))
(assert (= (select O 193) 1))
(assert (= (select O 194) 2))
(assert (= (select O 195) 2))
(assert (= (select O 196) 1))
(assert (= (select O 197) 2))
(assert (= (select O 198) 1))
(assert (= (select O 199) 2))

(declare-const L (Array Int Int))
(define-fun l () Int 2)

(assert (= (select L 0) 1))
(assert (= (select L 1) 2))

(define-fun-rec sum-if-value ((A (Array Int Int)) (item Int) (size Int)) Int
  (ite (< size 0)
       0
       (ite (= (select A size) item)
            (+ 1 (sum-if-value A item (- size 1)))
            (sum-if-value A item (- size 1))
       )
  )
)

(define-fun B () Int 2)

(assert
  (not
    (exists ((i Int))
      (and
        (>= i 0)
        (< i l)
        (< (sum-if-value O (select L i) (- m 1))
           (/ m (* l B)))
      )
    )
  )
)

(check-sat)
